p cnf 57 172
a 33 54 0
e 1 2 3 4 5 6 7 8 9 10 11 12 13 14 15 16 17 18 19 20 21 22 23 24 25 26 27 28 29 30 31 32 34 35 36 37 38 39 40 41 42 43 44 45 46 47 48 49 50 51 52 53 55 56 57 0
4 2 0
4 -3 0
-2 3 -4 0
1 -4 -5 0
-1 4 -5 0
1 4 5 0
-1 -4 5 0
1 -6 -7 0
-1 6 -7 0
1 6 7 0
-1 -6 7 0
7 8 -9 0
-7 -8 -9 0
7 -8 9 0
-7 8 9 0
-10 -5 0
-10 9 0
5 -9 10 0
-13 11 0
-13 -12 0
-11 12 13 0
6 -13 -14 0
-6 13 -14 0
6 13 14 0
-6 -13 14 0
15 -10 0
15 14 0
10 -14 -15 0
18 -16 0
18 17 0
16 -17 -18 0
19 -17 0
19 18 0
17 -18 -19 0
20 -19 0
20 -17 0
19 17 -20 0
12 20 -21 0
-12 -20 -21 0
12 -20 21 0
-12 20 21 0
16 21 -22 0
-16 -21 -22 0
16 -21 22 0
-16 21 22 0
-23 -1 0
-23 -2 0
1 2 23 0
24 -23 0
24 11 0
23 -11 -24 0
16 -8 -25 0
-16 8 -25 0
16 8 25 0
-16 -8 25 0
26 -25 0
26 -3 0
25 3 -26 0
27 -25 0
27 -11 0
25 11 -27 0
28 -26 0
28 -27 0
26 27 -28 0
29 24 0
29 28 0
-24 -28 -29 0
-30 22 0
-30 -29 0
-22 29 30 0
-31 -21 0
-31 8 0
21 -8 31 0
-32 -12 0
-32 31 0
12 -31 32 0
-33 32 0
-33 16 0
-32 -16 33 0
34 30 0
34 33 0
-30 -33 -34 0
35 10 0
35 5 0
-10 -5 -35 0
-36 -34 0
-36 35 0
34 -35 36 0
-37 -2 0
-37 -1 0
2 1 37 0
-11 -37 -38 0
11 37 -38 0
-11 37 38 0
11 -37 38 0
28 -38 -39 0
-28 38 -39 0
28 38 39 0
-28 -38 39 0
4 -18 -40 0
-4 18 -40 0
4 18 40 0
-4 -18 40 0
39 -40 -41 0
-39 40 -41 0
39 40 41 0
-39 -40 41 0
-42 -36 0
-42 -41 0
36 41 42 0
43 2 0
43 -8 0
-2 8 -43 0
-44 27 0
-44 -43 0
-27 43 44 0
45 44 0
45 17 0
-44 -17 -45 0
46 42 0
46 -45 0
-42 45 -46 0
15 46 -47 0
-15 -46 -47 0
15 -46 47 0
-15 46 47 0
-48 -6 0
-48 -37 0
6 37 48 0
-50 -49 0
-50 4 0
49 -4 50 0
-51 -48 0
-51 -50 0
48 50 51 0
16 -4 -52 0
-16 4 -52 0
16 4 52 0
-16 -4 52 0
51 -52 -53 0
-51 52 -53 0
51 52 53 0
-51 -52 53 0
-54 -3 0
-54 17 0
3 -17 54 0
55 -54 0
55 -2 0
54 2 -55 0
-56 53 0
-56 -55 0
-53 55 56 0
57 47 0
57 56 0
-47 -56 -57 0
30 3 18 -33 -28 6 57 0
8 51 -15 5 -29 -39 26 0
-30 -54 -16 53 43 21 0
24 -37 5 8 0
10 37 53 11 0
-5 46 43 -8 -51 0
53 30 28 1 5 -2 0
29 56 44 15 -14 -52 0
23 -16 -28 3 34 -49 -40 0
16 -50 -9 2 31 0
4 -53 41 24 44 30 0
50 40 17 -13 -14 0
29 -22 -8 35 -54 -28 -20 42 0
31 -11 -53 5 -45 34 -13 38 0
20 -11 -35 -41 -18 0
45 -28 -16 -44 14 0
57 0
